32      4       
14      17      17      15      
0       0       0       0       0       1       2       
10      1       1       1       2       1       3       
2       1       6       4       11      1       4       
8       1       6       1       1       2       8       5       
1       1       1       1       5       1       6       
10      1       1       7       1       1       7       
5       6       1       5       3       1       9       
1       1       9       13      1       1       9       
9       1       1       3       4       2       15      10      
8       1       2       1       1       1       11      
4       11      1       1       4       2       25      12      
3       6       2       6       1       1       13      
3       1       3       11      3       1       14      
5       1       7       5       1       1       16      
1       6       1       1       1       1       16      
9       5       5       5       1       1       17      
3       1       7       4       1       2       23      18      
1       1       11      1       7       2       20      19      
9       1       1       1       3       1       21      
6       1       1       1       5       1       21      
9       5       5       6       1       1       22      
7       1       1       1       1       1       24      
5       4       6       1       6       1       24      
5       5       5       2       1       2       27      26      
8       1       1       7       1       2       27      26      
9       8       12      1       1       1       28      
3       1       1       2       7       1       28      
6       1       1       4       4       1       29      
4       1       1       4       7       1       30      
7       8       1       1       4       1       31      
5       1       1       1       1       1       32      
0       0       0       0       0       0       
